c Easy SAT problem - GUARANTEED SATISFIABLE
c 75 variables, 500 clauses
c Solution: 1-37 TRUE, 38-75 FALSE
p cnf 75 500
1 2 3 0
2 3 4 0
3 4 5 0
4 5 6 0
5 6 7 0
6 7 8 0
7 8 9 0
8 9 10 0
9 10 11 0
10 11 12 0
11 12 13 0
12 13 14 0
13 14 15 0
14 15 16 0
15 16 17 0
16 17 18 0
17 18 19 0
18 19 20 0
19 20 21 0
20 21 22 0
21 22 23 0
22 23 24 0
23 24 25 0
24 25 26 0
25 26 27 0
26 27 28 0
27 28 29 0
28 29 30 0
29 30 31 0
30 31 32 0
31 32 33 0
32 33 34 0
33 34 35 0
34 35 36 0
35 36 37 0
36 37 1 0
37 1 2 0
-38 -39 -40 0
-39 -40 -41 0
-40 -41 -42 0
-41 -42 -43 0
-42 -43 -44 0
-43 -44 -45 0
-44 -45 -46 0
-45 -46 -47 0
-46 -47 -48 0
-47 -48 -49 0
-48 -49 -50 0
-49 -50 -51 0
-50 -51 -52 0
-51 -52 -53 0
-52 -53 -54 0
-53 -54 -55 0
-54 -55 -56 0
-55 -56 -57 0
-56 -57 -58 0
-57 -58 -59 0
-58 -59 -60 0
-59 -60 -61 0
-60 -61 -62 0
-61 -62 -63 0
-62 -63 -64 0
-63 -64 -65 0
-64 -65 -66 0
-65 -66 -67 0
-66 -67 -68 0
-67 -68 -69 0
-68 -69 -70 0
-69 -70 -71 0
-70 -71 -72 0
-71 -72 -73 0
-72 -73 -74 0
-73 -74 -75 0
-74 -75 -38 0
-75 -38 -39 0
1 -38 -48 0
2 -39 -49 0
3 -40 -50 0
4 -41 -51 0
5 -42 -52 0
6 -43 -53 0
7 -44 -54 0
8 -45 -55 0
9 -46 -56 0
10 -47 -57 0
11 -48 -58 0
12 -49 -59 0
13 -50 -60 0
14 -51 -61 0
15 -52 -62 0
16 -53 -63 0
17 -54 -64 0
18 -55 -65 0
19 -56 -66 0
20 -57 -67 0
21 -58 -68 0
22 -59 -69 0
23 -60 -70 0
24 -61 -71 0
25 -62 -72 0
26 -63 -73 0
27 -64 -74 0
28 -65 -75 0
29 -66 -38 0
30 -67 -39 0
31 -68 -40 0
32 -69 -41 0
33 -70 -42 0
34 -71 -43 0
35 -72 -44 0
36 -73 -45 0
37 -74 -46 0
1 3 -38 0
2 4 -39 0
3 5 -40 0
4 6 -41 0
5 7 -42 0
6 8 -43 0
7 9 -44 0
8 10 -45 0
9 11 -46 0
10 12 -47 0
11 13 -48 0
12 14 -49 0
13 15 -50 0
14 16 -51 0
15 17 -52 0
16 18 -53 0
17 19 -54 0
18 20 -55 0
19 21 -56 0
20 22 -57 0
21 23 -58 0
22 24 -59 0
23 25 -60 0
24 26 -61 0
25 27 -62 0
26 28 -63 0
27 29 -64 0
28 30 -65 0
29 31 -66 0
30 32 -67 0
31 33 -68 0
32 34 -69 0
33 35 -70 0
34 36 -71 0
35 37 -72 0
36 1 -73 0
37 2 -74 0
-38 -40 1 0
-39 -41 2 0
-40 -42 3 0
-41 -43 4 0
-42 -44 5 0
-43 -45 6 0
-44 -46 7 0
-45 -47 8 0
-46 -48 9 0
-47 -49 10 0
-48 -50 11 0
-49 -51 12 0
-50 -52 13 0
-51 -53 14 0
-52 -54 15 0
-53 -55 16 0
-54 -56 17 0
-55 -57 18 0
-56 -58 19 0
-57 -59 20 0
-58 -60 21 0
-59 -61 22 0
-60 -62 23 0
-61 -63 24 0
-62 -64 25 0
-63 -65 26 0
-64 -66 27 0
-65 -67 28 0
-66 -68 29 0
-67 -69 30 0
-68 -70 31 0
-69 -71 32 0
-70 -72 33 0
-71 -73 34 0
-72 -74 35 0
-73 -75 36 0
-74 -38 37 0
1 5 9 0
2 6 10 0
3 7 11 0
4 8 12 0
5 9 13 0
6 10 14 0
7 11 15 0
8 12 16 0
9 13 17 0
10 14 18 0
11 15 19 0
12 16 20 0
13 17 21 0
14 18 22 0
15 19 23 0
16 20 24 0
17 21 25 0
18 22 26 0
19 23 27 0
20 24 28 0
21 25 29 0
22 26 30 0
23 27 31 0
24 28 32 0
25 29 33 0
26 30 34 0
27 31 35 0
28 32 36 0
29 33 37 0
-38 -42 -46 0
-39 -43 -47 0
-40 -44 -48 0
-41 -45 -49 0
-42 -46 -50 0
-43 -47 -51 0
-44 -48 -52 0
-45 -49 -53 0
-46 -50 -54 0
-47 -51 -55 0
-48 -52 -56 0
-49 -53 -57 0
-50 -54 -58 0
-51 -55 -59 0
-52 -56 -60 0
-53 -57 -61 0
-54 -58 -62 0
-55 -59 -63 0
-56 -60 -64 0
-57 -61 -65 0
-58 -62 -66 0
-59 -63 -67 0
-60 -64 -68 0
-61 -65 -69 0
-62 -66 -70 0
-63 -67 -71 0
-64 -68 -72 0
-65 -69 -73 0
-66 -70 -74 0
-67 -71 -75 0
1 6 -42 0
2 7 -43 0
3 8 -44 0
4 9 -45 0
5 10 -46 0
6 11 -47 0
7 12 -48 0
8 13 -49 0
9 14 -50 0
10 15 -51 0
11 16 -52 0
12 17 -53 0
13 18 -54 0
14 19 -55 0
15 20 -56 0
16 21 -57 0
17 22 -58 0
18 23 -59 0
19 24 -60 0
20 25 -61 0
21 26 -62 0
22 27 -63 0
23 28 -64 0
24 29 -65 0
25 30 -66 0
26 31 -67 0
27 32 -68 0
28 33 -69 0
29 34 -70 0
30 35 -71 0
31 36 -72 0
32 37 -73 0
33 1 -74 0
34 2 -75 0
35 3 -38 0
36 4 -39 0
37 5 -40 0
1 7 13 0
2 8 14 0
3 9 15 0
4 10 16 0
5 11 17 0
6 12 18 0
7 13 19 0
8 14 20 0
9 15 21 0
10 16 22 0
11 17 23 0
12 18 24 0
13 19 25 0
14 20 26 0
15 21 27 0
16 22 28 0
17 23 29 0
18 24 30 0
19 25 31 0
20 26 32 0
21 27 33 0
22 28 34 0
23 29 35 0
24 30 36 0
25 31 37 0
-38 -44 -50 0
-39 -45 -51 0
-40 -46 -52 0
-41 -47 -53 0
-42 -48 -54 0
-43 -49 -55 0
-44 -50 -56 0
-45 -51 -57 0
-46 -52 -58 0
-47 -53 -59 0
-48 -54 -60 0
-49 -55 -61 0
-50 -56 -62 0
-51 -57 -63 0
-52 -58 -64 0
-53 -59 -65 0
-54 -60 -66 0
-55 -61 -67 0
-56 -62 -68 0
-57 -63 -69 0
-58 -64 -70 0
-59 -65 -71 0
-60 -66 -72 0
-61 -67 -73 0
-62 -68 -74 0
1 8 -44 0
2 9 -45 0
3 10 -46 0
4 11 -47 0
5 12 -48 0
6 13 -49 0
7 14 -50 0
8 15 -51 0
9 16 -52 0
10 17 -53 0
11 18 -54 0
12 19 -55 0
13 20 -56 0
14 21 -57 0
15 22 -58 0
16 23 -59 0
17 24 -60 0
18 25 -61 0
19 26 -62 0
20 27 -63 0
21 28 -64 0
22 29 -65 0
23 30 -66 0
24 31 -67 0
25 32 -68 0
26 33 -69 0
27 34 -70 0
28 35 -71 0
29 36 -72 0
30 37 -73 0
31 1 -74 0
32 2 -75 0
33 3 -38 0
34 4 -39 0
35 5 -40 0
36 6 -41 0
37 7 -42 0
1 9 17 0
2 10 18 0
3 11 19 0
4 12 20 0
5 13 21 0
6 14 22 0
7 15 23 0
8 16 24 0
9 17 25 0
10 18 26 0
11 19 27 0
12 20 28 0
13 21 29 0
14 22 30 0
15 23 31 0
16 24 32 0
17 25 33 0
18 26 34 0
19 27 35 0
20 28 36 0
21 29 37 0
-38 -46 -54 0
-39 -47 -55 0
-40 -48 -56 0
-41 -49 -57 0
-42 -50 -58 0
-43 -51 -59 0
-44 -52 -60 0
-45 -53 -61 0
-46 -54 -62 0
-47 -55 -63 0
-48 -56 -64 0
-49 -57 -65 0
-50 -58 -66 0
-51 -59 -67 0
-52 -60 -68 0
-53 -61 -69 0
-54 -62 -70 0
-55 -63 -71 0
-56 -64 -72 0
-57 -65 -73 0
-58 -66 -74 0
1 10 -46 0
2 11 -47 0
3 12 -48 0
4 13 -49 0
5 14 -50 0
6 15 -51 0
7 16 -52 0
8 17 -53 0
9 18 -54 0
10 19 -55 0
11 20 -56 0
12 21 -57 0
13 22 -58 0
14 23 -59 0
15 24 -60 0
16 25 -61 0
17 26 -62 0
18 27 -63 0
19 28 -64 0
20 29 -65 0
21 30 -66 0
22 31 -67 0
23 32 -68 0
24 33 -69 0
25 34 -70 0
26 35 -71 0
27 36 -72 0
28 37 -73 0
29 1 -74 0
30 2 -75 0
31 3 -38 0
32 4 -39 0
33 5 -40 0
34 6 -41 0
35 7 -42 0
36 8 -43 0
37 9 -44 0
-38 -48 -58 0
-39 -49 -59 0
-40 -50 -60 0
-41 -51 -61 0
-42 -52 -62 0
-43 -53 -63 0
-44 -54 -64 0
-45 -55 -65 0
-46 -56 -66 0
-47 -57 -67 0
-48 -58 -68 0
-49 -59 -69 0
-50 -60 -70 0
-51 -61 -71 0
-52 -62 -72 0
-53 -63 -73 0
-54 -64 -74 0
-55 -65 -75 0
-56 -66 -38 0
-57 -67 -39 0
